\ Model milp
\ LP format - for model browsing. Use MPS format to capture full model detail.
Maximize
  in_0
Subject To
 R0: 0.8606534004211426 in_0 + x_0_0 = 0.539738655090332
 R1: out_0 = 0.3015815019607544
 R2: out_0 >= 0.2589356770515442
 R3: out_0 <= 0.2609356770515442
 R4: - out_0 <= -0.2589356770515442
 R5: out_0 <= 0.2609356770515442
Bounds
 0.7520457148551941 <= in_0 <= 0.9520457148551941
 -0.2796427267561682 <= x_0_0 <= -0.1075120466719398
 out_0 = 0.3015815019607544
End
